NAME : LC1_6_2
TYPE : PDPTW
DIMENSION : 150
EDGE_WEIGHT_TYPE : EXACT_2D
NODE_COORD_SECTION
1 1 0
2 150 0
3 0 0
4 -10 306
5 0 2
6 0 1302
7 3 229
8 319 90
9 214 156
10 90 0
11 260 10
12 0 234
13 10 0
14 95 7
15 163 210
16 8 85
17 1308 90
18 105 230
19 90 0
20 111 30
21 0 416
22 -20 0
23 0 12
24 629 696
25 13 143
26 100 90
27 173 233
28 90 0
29 24 20
30 0 609
31 10 286
32 115 17
33 551 633
34 18 141
35 233 90
36 100 73
37 90 572
38 70 30
39 0 542
40 -20 0
41 0 22
42 412 485
43 23 129
44 655 90
45 62 65
46 90 596
47 239 -20
48 292 0
49 -20 569
50 0 27
51 722 775
52 28 203
53 107 90
54 251 241
55 90 0
56 110 20
57 0 332
58 -10 159
59 0 32
60 0 1270
61 33 145
62 1372 90
63 121 170
64 90 55
65 141 20
66 0 373
67 20 0
68 27 37
69 701 769
70 38 122
71 542 90
72 119 267
73 90 53
74 113 -20
75 415 0
76 10 661
77 467 42
78 0 1290
79 43 157
80 1260 90
81 73 226
82 90 0
83 109 40
84 0 342
85 -10 0
86 0 47
87 118 175
88 48 31
89 1254 90
90 10 147
91 90 0
92 176 -30
93 154 0
94 20 135
95 199 52
96 0 1281
97 53 119
98 1290 90
99 220 74
100 0 0
101 175 30
102 0 34
103 30 649
104 316 57
105 201 249
106 58 61
107 494 90
108 140 143
109 90 593
110 125 30
111 0 229
112 20 104
113 582 62
114 803 863
115 63 103
116 305 90
117 71 154
118 90 88
119 27 20
120 0 83
121 20 797
122 348 67
123 530 604
124 68 108
125 262 90
126 86 230
127 90 0
128 221 -10
129 450 0
130 10 0
131 604 72
132 0 1284
133 73 151
134 446 90
135 83 30
136 90 170
137 184 -10
138 158 0
139 -20 0
140 0 77
141 569 632
142 78 263
143 626 90
144 259 59
145 90 217
146 26 10
147 0 43
148 -10 1026
149 0 82
150 0 1240
PICKUP_AND_DELIVERY_SECTION
1 0 0 0 0 0 0
2 0 0 0 0 1496 0
3 0 0 0 0 0 17
4 0 0 0 0 90 90
5 0 0 0 0 254 254
6 0 0 0 0 42 42
7 0 0 0 0 -10 -10
8 0 0 0 0 0 0
9 0 0 0 0 672 672
10 0 0 0 0 5 5
11 0 0 0 0 414 414
12 0 0 0 0 29 29
13 0 0 0 0 90 90
14 0 0 0 0 277 277
15 0 0 0 0 0 0
16 0 0 0 0 -10 -10
17 0 0 0 0 0 0
18 0 0 0 0 91 91
19 0 0 0 0 10 10
20 0 0 0 0 1366 0
21 0 0 0 0 65 65
22 0 0 0 0 90 90
23 0 0 0 0 233 233
24 0 0 0 0 0 0
25 0 0 0 0 20 20
26 0 0 0 0 308 0
27 0 0 0 0 0 0
28 0 0 0 0 15 15
29 0 0 0 0 537 537
30 0 0 0 0 277 277
31 0 0 0 0 90 90
32 0 0 0 0 105 105
33 0 0 0 0 228 228
34 0 0 0 0 30 30
35 0 0 0 0 340 0
36 0 0 0 0 0 0
37 0 0 0 0 20 0
38 0 0 0 0 180 180
39 0 0 0 0 161 161
40 0 0 0 0 90 90
41 0 0 0 0 280 280
42 0 0 0 0 0 0
43 0 0 0 0 -20 -20
44 0 0 0 0 0 0
45 0 0 0 0 939 939
46 0 0 0 0 25 0
47 0 0 0 0 629 629
48 0 0 0 0 9 9
49 0 0 0 0 90 90
50 0 0 0 0 228 228
51 0 0 0 0 36 36
52 0 0 0 0 20 20
53 0 0 0 0 523 0
54 0 0 0 0 197 197
55 0 0 0 0 30 30
56 0 0 0 0 457 457
57 0 0 0 0 106 106
58 0 0 0 0 90 90
59 0 0 0 0 102 102
60 0 0 0 0 0 0
61 0 0 0 0 -30 -30
62 0 0 0 0 0 0
63 0 0 0 0 569 569
64 0 0 0 0 35 0
65 0 0 0 0 1281 0
66 0 0 0 0 167 167
67 0 0 0 0 90 90
68 0 0 0 0 229 229
69 0 0 0 0 0 0
70 0 0 0 0 -30 -30
71 0 0 0 0 0 0
72 0 0 0 0 635 635
73 0 0 0 0 40 0
74 0 0 0 0 776 776
75 0 0 0 0 257 257
76 0 0 0 0 90 90
77 0 0 0 0 266 266
78 0 0 0 0 0 0
79 0 0 0 0 -10 -10
80 0 0 0 0 0 0
81 0 0 0 0 174 174
82 0 0 0 0 45 45
83 0 0 0 0 294 294
84 0 0 0 0 12 12
85 0 0 0 0 90 90
86 0 0 0 0 126 126
87 0 0 0 0 0 0
88 0 0 0 0 -30 -30
89 0 0 0 0 0 0
90 0 0 0 0 0 0
91 0 0 0 0 50 50
92 0 0 0 0 1375 0
93 0 0 0 0 277 277
94 0 0 0 0 90 90
95 0 0 0 0 232 232
96 0 0 0 0 0 0
97 0 0 0 0 20 20
98 0 0 0 0 39 0
99 0 0 0 0 835 835
100 0 0 0 0 55 55
101 0 0 0 0 442 442
102 0 0 0 0 144 144
103 0 0 0 0 90 90
104 0 0 0 0 285 285
105 0 0 0 0 352 352
106 0 0 0 0 -20 -20
107 0 0 0 0 0 0
108 0 0 0 0 0 0
109 0 0 0 0 60 0
110 0 0 0 0 1348 0
111 0 0 0 0 114 114
112 0 0 0 0 90 90
113 0 0 0 0 80 80
114 0 0 0 0 333 333
115 0 0 0 0 20 20
116 0 0 0 0 317 0
117 0 0 0 0 0 0
118 0 0 0 0 65 0
119 0 0 0 0 438 438
120 0 0 0 0 67 67
121 0 0 0 0 90 90
122 0 0 0 0 132 132
123 0 0 0 0 0 0
124 0 0 0 0 10 10
125 0 0 0 0 597 0
126 0 0 0 0 155 155
127 0 0 0 0 70 70
128 0 0 0 0 1302 0
129 0 0 0 0 116 116
130 0 0 0 0 0 0
131 0 0 0 0 28 28
132 0 0 0 0 0 0
133 0 0 0 0 20 20
134 0 0 0 0 266 0
135 0 0 0 0 0 0
136 0 0 0 0 75 0
137 0 0 0 0 243 243
138 0 0 0 0 141 141
139 0 0 0 0 90 90
140 0 0 0 0 156 156
141 0 0 0 0 0 0
142 0 0 0 0 -10 -10
143 0 0 0 0 0 0
144 0 0 0 0 563 563
145 0 0 0 0 80 0
146 0 0 0 0 978 978
147 0 0 0 0 59 59
148 0 0 0 0 90 90
149 0 0 0 0 4 4
150 0 0 0 0 0 0
DEPOT_SECTION
1 
-1
EOF
